c A SAT instance generated from a 3-CNF formula that had 12 clauses and 6 variables
p cnf 6 12
6 -3 4 0
-4 -1 -5 0
-3 -5 2 0
-2 6 5 0
3 -5 4 0
-4 -3 5 0
-5 -2 6 0
1 4 6 0
-2 -3 6 0
-4 1 -2 0
2 -5 -6 0
-4 3 -6 0
